10	5
0	4	3	1	2	4
1	1	7
2	3	10	9	7
3	2	5	6
4	1	6
5	4	9	10	7	8
6	2	8	7
7	1	11
8	1	11
9	1	11
10	1	11
11	0
0	0	0	0	0	0	0
1	5	1	2	5	5	5
2	6	2	2	4	1	2
3	4	5	3	5	5	2
4	2	1	2	1	3	5
5	2	3	4	3	4	4
6	5	4	5	3	1	3
7	6	1	2	4	2	2
8	7	3	5	2	4	4
9	10	1	3	4	1	2
10	7	2	4	2	5	5
11	0	0	0	0	0	0
7	10	10	10	10
